solution status: optimal solution found
objective value:                     201579.181092025
d11(0,0)                                            1 	(obj:0)
d11(1,1)                                            1 	(obj:0)
d11(2,3)                                            1 	(obj:0)
d11(2,4)                                            1 	(obj:0)
d11(2,5)                                            1 	(obj:0)
d11(3,7)                                            1 	(obj:0)
d11(3,8)                                            1 	(obj:0)
d11(3,9)                                            1 	(obj:0)
d11(3,10)                                           1 	(obj:0)
d11(3,11)                                           1 	(obj:0)
d11(3,12)                                           1 	(obj:0)
d11(3,13)                                           1 	(obj:0)
d11(3,14)                                           1 	(obj:0)
d11(4,15)                                           1 	(obj:0)
d11(4,17)                                           1 	(obj:0)
d11(4,19)                                           1 	(obj:0)
d11(4,21)                                           1 	(obj:0)
d11(4,23)                                           1 	(obj:0)
d11(4,25)                                           1 	(obj:0)
d11(4,27)                                           1 	(obj:0)
d11(4,29)                                           1 	(obj:0)
d11(6,63)                                           1 	(obj:0)
d11(6,65)                                           1 	(obj:0)
d11(6,67)                                           1 	(obj:0)
d11(6,69)                                           1 	(obj:0)
d11(6,71)                                           1 	(obj:0)
d11(6,73)                                           1 	(obj:0)
d11(6,75)                                           1 	(obj:0)
d11(6,77)                                           1 	(obj:0)
d11(6,79)                                           1 	(obj:0)
d11(6,81)                                           1 	(obj:0)
d11(6,82)                                           1 	(obj:0)
d11(6,83)                                           1 	(obj:0)
d11(6,85)                                           1 	(obj:0)
d11(6,87)                                           1 	(obj:0)
d11(6,89)                                           1 	(obj:0)
d11(6,91)                                           1 	(obj:0)
d11(6,93)                                           1 	(obj:0)
d11(6,95)                                           1 	(obj:0)
d11(6,97)                                           1 	(obj:0)
d11(6,99)                                           1 	(obj:0)
d11(6,101)                                          1 	(obj:0)
d11(6,103)                                          1 	(obj:0)
d11(6,105)                                          1 	(obj:0)
d11(6,107)                                          1 	(obj:0)
d11(6,109)                                          1 	(obj:0)
d11(6,111)                                          1 	(obj:0)
d11(6,112)                                          1 	(obj:0)
d11(6,113)                                          1 	(obj:0)
d11(6,115)                                          1 	(obj:0)
d11(6,117)                                          1 	(obj:0)
d11(6,119)                                          1 	(obj:0)
d11(6,121)                                          1 	(obj:0)
d11(6,123)                                          1 	(obj:0)
d11(6,125)                                          1 	(obj:0)
d12(1,2)                                            1 	(obj:0)
d12(5,31)                                           1 	(obj:0)
d12(5,32)                                           1 	(obj:0)
d12(5,33)                                           1 	(obj:0)
d12(5,34)                                           1 	(obj:0)
d12(5,35)                                           1 	(obj:0)
d12(5,36)                                           1 	(obj:0)
d12(5,37)                                           1 	(obj:0)
d12(5,38)                                           1 	(obj:0)
d12(5,39)                                           1 	(obj:0)
d12(5,40)                                           1 	(obj:0)
d12(5,41)                                           1 	(obj:0)
d12(5,42)                                           1 	(obj:0)
d12(5,43)                                           1 	(obj:0)
d12(5,44)                                           1 	(obj:0)
d12(5,45)                                           1 	(obj:0)
d12(5,46)                                           1 	(obj:0)
d12(5,47)                                           1 	(obj:0)
d12(5,48)                                           1 	(obj:0)
d12(5,49)                                           1 	(obj:0)
d12(5,50)                                           1 	(obj:0)
d12(5,51)                                           1 	(obj:0)
d12(5,52)                                           1 	(obj:0)
d12(5,53)                                           1 	(obj:0)
d12(5,54)                                           1 	(obj:0)
d12(5,55)                                           1 	(obj:0)
d12(5,56)                                           1 	(obj:0)
d12(5,57)                                           1 	(obj:0)
d12(5,58)                                           1 	(obj:0)
d12(5,59)                                           1 	(obj:0)
d12(5,60)                                           1 	(obj:0)
d12(5,61)                                           1 	(obj:0)
d12(5,62)                                           1 	(obj:0)
d21(3,7)                                            1 	(obj:0)
d21(4,15)                                           1 	(obj:0)
d21(4,16)                                           1 	(obj:0)
d21(4,17)                                           1 	(obj:0)
d21(4,19)                                           1 	(obj:0)
d21(4,23)                                           1 	(obj:0)
d21(4,24)                                           1 	(obj:0)
d21(4,25)                                           1 	(obj:0)
d21(4,27)                                           1 	(obj:0)
d21(5,31)                                           1 	(obj:0)
d21(5,32)                                           1 	(obj:0)
d21(5,33)                                           1 	(obj:0)
d21(5,35)                                           1 	(obj:0)
d21(5,39)                                           1 	(obj:0)
d21(5,47)                                           1 	(obj:0)
d21(6,63)                                           1 	(obj:0)
d21(6,64)                                           1 	(obj:0)
d21(6,65)                                           1 	(obj:0)
d21(6,66)                                           1 	(obj:0)
d21(6,67)                                           1 	(obj:0)
d21(6,68)                                           1 	(obj:0)
d21(6,69)                                           1 	(obj:0)
d21(6,71)                                           1 	(obj:0)
d21(6,72)                                           1 	(obj:0)
d21(6,73)                                           1 	(obj:0)
d21(6,75)                                           1 	(obj:0)
d21(6,79)                                           1 	(obj:0)
d21(6,80)                                           1 	(obj:0)
d21(6,81)                                           1 	(obj:0)
d21(6,83)                                           1 	(obj:0)
d21(6,87)                                           1 	(obj:0)
d21(6,95)                                           1 	(obj:0)
d21(6,96)                                           1 	(obj:0)
d21(6,97)                                           1 	(obj:0)
d21(6,98)                                           1 	(obj:0)
d21(6,99)                                           1 	(obj:0)
d21(6,100)                                          1 	(obj:0)
d21(6,101)                                          1 	(obj:0)
d21(6,103)                                          1 	(obj:0)
d21(6,105)                                          1 	(obj:0)
d21(6,111)                                          1 	(obj:0)
d21(6,113)                                          1 	(obj:0)
STE(1,1)                             8651.25014888884 	(obj:0)
STE(0,0)                                         9450 	(obj:0)
STE(1,2)                             9972.17108061725 	(obj:0)
STE(2,3)                                   6237.00025 	(obj:0)
STE(2,4)                             7895.25014888885 	(obj:0)
STE(2,5)                              7557.9211817284 	(obj:0)
STE(2,6)                             9216.17108061725 	(obj:0)
STE(3,7)                             3822.75035111118 	(obj:0)
STE(3,8)                                   5481.00025 	(obj:0)
STE(3,9)                             5481.00025000003 	(obj:0)
STE(3,10)                            7139.25014888885 	(obj:0)
STE(3,11)                            5143.67128283958 	(obj:0)
STE(3,12)                             6801.9211817284 	(obj:0)
STE(3,13)                            6801.92118172843 	(obj:0)
STE(3,14)                            8460.17108061725 	(obj:0)
STE(4,15)                            1408.50045222236 	(obj:0)
STE(4,16)                            3066.75035111118 	(obj:0)
STE(4,17)                            3066.75035111117 	(obj:0)
STE(4,18)                                  4725.00025 	(obj:0)
STE(4,19)                            3066.75035111118 	(obj:0)
STE(4,20)                            4725.00025000003 	(obj:0)
STE(4,21)                                  4725.00025 	(obj:0)
STE(4,22)                            6383.25014888885 	(obj:0)
STE(4,23)                            2729.42138395075 	(obj:0)
STE(4,24)                            4387.67128283958 	(obj:0)
STE(4,25)                            4387.67128284006 	(obj:0)
STE(4,26)                             6045.9211817284 	(obj:0)
STE(4,27)                            4387.67128283961 	(obj:0)
STE(4,28)                            6045.92118172843 	(obj:0)
STE(4,29)                            6045.92118172843 	(obj:0)
STE(4,30)                            7704.17108061725 	(obj:0)
STE(5,31)                            2501.82941938274 	(obj:0)
STE(5,32)                            3919.63308293268 	(obj:0)
STE(5,33)                            4160.07931827157 	(obj:0)
STE(5,34)                            5577.88298182151 	(obj:0)
STE(5,35)                            4160.07931827156 	(obj:0)
STE(5,36)                             5577.8829818215 	(obj:0)
STE(5,37)                            5818.32921716039 	(obj:0)
STE(5,38)                            7236.13288071033 	(obj:0)
STE(5,39)                            4160.07931827157 	(obj:0)
STE(5,40)                            5577.88298182151 	(obj:0)
STE(5,41)                            5818.32921716042 	(obj:0)
STE(5,42)                            7236.13288071036 	(obj:0)
STE(5,43)                            5818.32921716039 	(obj:0)
STE(5,44)                            7236.13288071033 	(obj:0)
STE(5,45)                            7476.57911604924 	(obj:0)
STE(5,46)                            8894.38277959917 	(obj:0)
STE(5,47)                            3822.75035111114 	(obj:0)
STE(5,48)                            5240.55401466108 	(obj:0)
STE(5,49)                            5481.00024999997 	(obj:0)
STE(5,50)                            6898.80391354991 	(obj:0)
STE(5,51)                            5481.00025000045 	(obj:0)
STE(5,52)                            6898.80391355039 	(obj:0)
STE(5,53)                            7139.25014888882 	(obj:0)
STE(5,54)                            8557.05381243873 	(obj:0)
STE(5,55)                                  5481.00025 	(obj:0)
STE(5,56)                            6898.80391354994 	(obj:0)
STE(5,57)                            7139.25014888882 	(obj:0)
STE(5,58)                            8557.05381243876 	(obj:0)
STE(5,59)                            7139.25014888882 	(obj:0)
STE(5,60)                            8557.05381243876 	(obj:0)
STE(5,61)                            8797.50004777763 	(obj:0)
STE(5,62)                            10215.3037113276 	(obj:0)
STE(6,63)                            87.5795204939259 	(obj:0)
STE(6,64)                            1745.82941938274 	(obj:0)
STE(6,65)                            1505.38318404387 	(obj:0)
STE(6,66)                            3163.63308293268 	(obj:0)
STE(6,67)                            1745.82941938275 	(obj:0)
STE(6,68)                            3404.07931827157 	(obj:0)
STE(6,69)                            3163.63308293269 	(obj:0)
STE(6,70)                            4821.88298182151 	(obj:0)
STE(6,71)                            1745.82941938274 	(obj:0)
STE(6,72)                            3404.07931827156 	(obj:0)
STE(6,73)                            3163.63308293268 	(obj:0)
STE(6,74)                             4821.8829818215 	(obj:0)
STE(6,75)                            3404.07931827157 	(obj:0)
STE(6,76)                            5062.32921716039 	(obj:0)
STE(6,77)                            4821.88298182151 	(obj:0)
STE(6,78)                            6480.13288071033 	(obj:0)
STE(6,79)                            1745.82941938275 	(obj:0)
STE(6,80)                            3404.07931827157 	(obj:0)
STE(6,81)                            3163.63308293269 	(obj:0)
STE(6,82)                            4821.88298182151 	(obj:0)
STE(6,83)                             3404.0793182716 	(obj:0)
STE(6,84)                            5062.32921716042 	(obj:0)
STE(6,85)                            4821.88298182154 	(obj:0)
STE(6,86)                            6480.13288071036 	(obj:0)
STE(6,87)                            3404.07931827157 	(obj:0)
STE(6,88)                            5062.32921716039 	(obj:0)
STE(6,89)                            4821.88298182151 	(obj:0)
STE(6,90)                            6480.13288071033 	(obj:0)
STE(6,91)                            5062.32921716042 	(obj:0)
STE(6,92)                            6720.57911604924 	(obj:0)
STE(6,93)                            6480.13288071036 	(obj:0)
STE(6,94)                            8138.38277959917 	(obj:0)
STE(6,95)                            1408.50045222232 	(obj:0)
STE(6,96)                            3066.75035111114 	(obj:0)
STE(6,97)                            2826.30411577226 	(obj:0)
STE(6,98)                            4484.55401466108 	(obj:0)
STE(6,99)                            3066.75035111115 	(obj:0)
STE(6,100)                           4725.00024999997 	(obj:0)
STE(6,101)                           4484.55401466109 	(obj:0)
STE(6,102)                           6142.80391354991 	(obj:0)
STE(6,103)                           3066.75035111163 	(obj:0)
STE(6,104)                           4725.00025000045 	(obj:0)
STE(6,105)                           4484.55401466157 	(obj:0)
STE(6,106)                           6142.80391355039 	(obj:0)
STE(6,107)                                 4725.00025 	(obj:0)
STE(6,108)                           6383.25014888882 	(obj:0)
STE(6,109)                           6142.80391354991 	(obj:0)
STE(6,110)                           7801.05381243873 	(obj:0)
STE(6,111)                           3066.75035111118 	(obj:0)
STE(6,112)                                 4725.00025 	(obj:0)
STE(6,113)                           4484.55401466112 	(obj:0)
STE(6,114)                           6142.80391354994 	(obj:0)
STE(6,115)                                 4725.00025 	(obj:0)
STE(6,116)                           6383.25014888882 	(obj:0)
STE(6,117)                           6142.80391354994 	(obj:0)
STE(6,118)                           7801.05381243876 	(obj:0)
STE(6,119)                                 4725.00025 	(obj:0)
STE(6,120)                           6383.25014888882 	(obj:0)
STE(6,121)                           6142.80391354994 	(obj:0)
STE(6,122)                           7801.05381243876 	(obj:0)
STE(6,123)                           6383.25014888882 	(obj:0)
STE(6,124)                           8041.50004777763 	(obj:0)
STE(6,125)                           7801.05381243876 	(obj:0)
STE(6,126)                           9459.30371132757 	(obj:0)
y1(6,99)                             1492.42490899994 	(obj:0)
y1(6,101)                            1492.42490899994 	(obj:0)
y1(6,103)                            1492.42490899994 	(obj:0)
y1(6,105)                            1492.42490899994 	(obj:0)
y1(6,107)                            1492.42490899994 	(obj:0)
y1(6,109)                            1492.42490899994 	(obj:0)
y1(6,111)                            1492.42490899994 	(obj:0)
y1(6,113)                            1492.42490899994 	(obj:0)
y1(6,115)                            1492.42490899994 	(obj:0)
y1(6,117)                            1492.42490899994 	(obj:0)
y1(6,119)                            1492.42490899994 	(obj:0)
y1(6,121)                            1492.42490899994 	(obj:0)
y1(6,123)                            1492.42490899994 	(obj:0)
y1(6,125)                            1492.42490899994 	(obj:0)
BG(6)                                1149.93060391277 	(obj:10)
WB(1)                                3259.55177567504 	(obj:0)
AVE(1)                               3259.55177567504 	(obj:0)
WB(2)                                3259.55588804169 	(obj:0)
AVE(2)                               3259.55588804169 	(obj:0)
AVE(3)                               3579.36165209166 	(obj:0)
AVE(4)                               3579.36576445831 	(obj:0)
WB(5)                                2812.69197078008 	(obj:0)
AVE(5)                               3472.77007794174 	(obj:0)
AVE(6)                                3046.3618950668 	(obj:0)
WG(3)                                3579.36165209166 	(obj:10)
WG(4)                                3579.36576445831 	(obj:10)
WG(5)                                 660.07810716166 	(obj:10)
WG(6)                                 3046.3618950668 	(obj:10)
BG(1)                                2712.67000612253 	(obj:10)
BG(2)                                4196.29249897959 	(obj:10)
BG(3)                                616.930846887906 	(obj:10)
BG(4)                                616.926734521281 	(obj:10)
y1(1,1)                              38.4748660000402 	(obj:0)
y1(2,3)                              1492.42490899996 	(obj:0)
y1(2,5)                              1492.42490899996 	(obj:0)
y1(3,7)                              1492.42490899994 	(obj:0)
y1(3,9)                              1492.42490899994 	(obj:0)
y1(3,11)                             1492.42490899994 	(obj:0)
y1(3,13)                             1492.42490899994 	(obj:0)
y1(4,15)                             1492.42490899994 	(obj:0)
y1(4,17)                             1492.42490899994 	(obj:0)
y1(4,19)                             1492.42490899996 	(obj:0)
y1(4,21)                             1492.42490899996 	(obj:0)
y1(4,23)                             1492.42490899994 	(obj:0)
y1(4,25)                             1492.42490899951 	(obj:0)
y1(4,27)                             1492.42490899993 	(obj:0)
y1(4,29)                             1492.42490899993 	(obj:0)
y1(6,63)                             1492.42490899994 	(obj:0)
y1(6,65)                             1492.42490899994 	(obj:0)
y1(6,67)                             1492.42490899994 	(obj:0)
y1(6,69)                             1492.42490899994 	(obj:0)
y1(6,71)                             1492.42490899994 	(obj:0)
y1(6,73)                             1492.42490899994 	(obj:0)
y1(6,75)                             1492.42490899994 	(obj:0)
y1(6,77)                             1492.42490899994 	(obj:0)
y1(6,79)                             1492.42490899994 	(obj:0)
y1(6,81)                             1492.42490899994 	(obj:0)
y1(6,83)                             1492.42490899994 	(obj:0)
y1(6,85)                             1492.42490899994 	(obj:0)
y1(6,87)                             1492.42490899994 	(obj:0)
y1(6,89)                             1492.42490899994 	(obj:0)
y1(6,91)                             1492.42490899994 	(obj:0)
y1(6,93)                             1492.42490899994 	(obj:0)
y1(6,95)                             1492.42490899994 	(obj:0)
y1(6,97)                             1492.42490899994 	(obj:0)
y2(1,2)                              1345.44324275499 	(obj:0)
y2(5,31)                             1946.66207069515 	(obj:0)
y2(5,32)                             3439.08697969508 	(obj:0)
y2(5,33)                             1946.66207069515 	(obj:0)
y2(5,34)                             3439.08697969508 	(obj:0)
y2(5,35)                             1946.66207069515 	(obj:0)
y2(5,36)                             3439.08697969508 	(obj:0)
y2(5,37)                             1946.66207069515 	(obj:0)
y2(5,38)                             3439.08697969508 	(obj:0)
y2(5,39)                             1946.66207069515 	(obj:0)
y2(5,40)                             3439.08697969508 	(obj:0)
y2(5,41)                             1946.66207069515 	(obj:0)
y2(5,42)                             3439.08697969508 	(obj:0)
y2(5,43)                             1946.66207069515 	(obj:0)
y2(5,44)                             3439.08697969508 	(obj:0)
y2(5,45)                             1946.66207069515 	(obj:0)
y2(5,46)                             3439.08697969508 	(obj:0)
y2(5,47)                             1946.66207069515 	(obj:0)
y2(5,48)                             3439.08697969508 	(obj:0)
y2(5,49)                             1946.66207069515 	(obj:0)
y2(5,50)                             3439.08697969508 	(obj:0)
y2(5,51)                             1946.66207069515 	(obj:0)
y2(5,52)                             3439.08697969508 	(obj:0)
y2(5,53)                             1946.66207069518 	(obj:0)
y2(5,54)                             3439.08697969508 	(obj:0)
y2(5,55)                             1946.66207069515 	(obj:0)
y2(5,56)                             3439.08697969508 	(obj:0)
y2(5,57)                             1946.66207069515 	(obj:0)
y2(5,58)                             3439.08697969508 	(obj:0)
y2(5,59)                             1946.66207069515 	(obj:0)
y2(5,60)                             3439.08697969508 	(obj:0)
y2(5,61)                             1946.66207069515 	(obj:0)
y2(5,62)                             3439.08697969508 	(obj:0)
